
Starting CP-SAT solver v9.14.6206
Parameters: max_time_in_seconds: 600 log_search_progress: true relative_gap_limit: 0
Setting number of workers to 20

Initial optimization model '': (model_fingerprint: 0xe59dfff649f1e112)
#Variables: 421 (#ints: 1 in objective) (321 primary variables)
  - 80 in [0,12410]
  - 16 in [0,62050]
  - 1 in [0,198560]
  - 1 in [0,1191360]
  - 2 in [0,1389920]
  - 320 in [1440,12410]
  - 1 constants in {0} 
#kInterval: 160
#kLinMax: 48 (#expressions: 96)
#kLinear1: 17
#kLinear2: 192
#kLinear3: 2
#kLinearN: 2 (#terms: 50)
#kNoOverlap: 10 (#intervals: 160)

Starting presolve at 0.00s
  8.17e-05s  0.00e+00d  [DetectDominanceRelations] 
  2.30e-03s  0.00e+00d  [operations_research::sat::CpModelPresolver::PresolveToFixPoint] #num_loops=10 #num_dual_strengthening=1 
  9.10e-06s  0.00e+00d  [operations_research::sat::CpModelPresolver::ExtractEncodingFromLinear] 
  2.40e-05s  0.00e+00d  [operations_research::sat::CpModelPresolver::DetectDuplicateColumns] 
  1.01e-04s  0.00e+00d  [operations_research::sat::CpModelPresolver::DetectDuplicateConstraints] 
[Symmetry] Graph for symmetry has 983 nodes and 945 arcs.
[Symmetry] Symmetry computation done. time: 9.41e-05 dtime: 0.00014194
  9.44e-05s  0.00e+00d  [operations_research::sat::CpModelPresolver::DetectDuplicateConstraintsWithDifferentEnforcements] 
  8.48e-04s  2.32e-06d  [operations_research::sat::CpModelPresolver::Probe] 
  1.06e-05s  0.00e+00d  [MaxClique] 
  7.56e-05s  0.00e+00d  [DetectDominanceRelations] 
  5.77e-04s  0.00e+00d  [operations_research::sat::CpModelPresolver::PresolveToFixPoint] #num_loops=1 #num_dual_strengthening=1 
  4.44e-05s  0.00e+00d  [operations_research::sat::CpModelPresolver::ProcessAtMostOneAndLinear] 
  7.27e-05s  0.00e+00d  [operations_research::sat::CpModelPresolver::DetectDuplicateConstraints] 
  6.77e-05s  0.00e+00d  [operations_research::sat::CpModelPresolver::DetectDuplicateConstraintsWithDifferentEnforcements] 
  4.76e-05s  1.14e-06d  [operations_research::sat::CpModelPresolver::DetectDominatedLinearConstraints] #relevant_constraints=189 
  3.84e-05s  0.00e+00d  [operations_research::sat::CpModelPresolver::DetectDifferentVariables] 
  4.50e-06s  0.00e+00d  [operations_research::sat::CpModelPresolver::ProcessSetPPC] 
  5.80e-06s  0.00e+00d  [operations_research::sat::CpModelPresolver::FindAlmostIdenticalLinearConstraints] 
  1.27e-05s  0.00e+00d  [operations_research::sat::CpModelPresolver::FindBigAtMostOneAndLinearOverlap] 
  2.67e-05s  6.69e-06d  [operations_research::sat::CpModelPresolver::FindBigVerticalLinearOverlap] 
  1.34e-05s  0.00e+00d  [operations_research::sat::CpModelPresolver::FindBigHorizontalLinearOverlap] 
  7.30e-06s  0.00e+00d  [operations_research::sat::CpModelPresolver::MergeClauses] 
  5.70e-05s  0.00e+00d  [DetectDominanceRelations] 
  3.64e-04s  0.00e+00d  [operations_research::sat::CpModelPresolver::PresolveToFixPoint] #num_loops=1 #num_dual_strengthening=1 
  5.42e-05s  0.00e+00d  [DetectDominanceRelations] 
  3.45e-04s  0.00e+00d  [operations_research::sat::CpModelPresolver::PresolveToFixPoint] #num_loops=1 #num_dual_strengthening=1 
  1.90e-05s  0.00e+00d  [operations_research::sat::CpModelPresolver::DetectDuplicateColumns] 
  6.75e-05s  0.00e+00d  [operations_research::sat::CpModelPresolver::DetectDuplicateConstraints] 
[Symmetry] Graph for symmetry has 940 nodes and 858 arcs.
[Symmetry] Symmetry computation done. time: 6.92e-05 dtime: 0.00013545
  7.37e-05s  0.00e+00d  [operations_research::sat::CpModelPresolver::DetectDuplicateConstraintsWithDifferentEnforcements] 
  6.01e-04s  1.87e-06d  [operations_research::sat::CpModelPresolver::Probe] 
  3.90e-06s  0.00e+00d  [MaxClique] 
  5.97e-05s  0.00e+00d  [DetectDominanceRelations] 
  3.81e-04s  0.00e+00d  [operations_research::sat::CpModelPresolver::PresolveToFixPoint] #num_loops=1 #num_dual_strengthening=1 
  4.08e-05s  0.00e+00d  [operations_research::sat::CpModelPresolver::ProcessAtMostOneAndLinear] 
  6.92e-05s  0.00e+00d  [operations_research::sat::CpModelPresolver::DetectDuplicateConstraints] 
  6.76e-05s  0.00e+00d  [operations_research::sat::CpModelPresolver::DetectDuplicateConstraintsWithDifferentEnforcements] 
  3.74e-05s  1.14e-06d  [operations_research::sat::CpModelPresolver::DetectDominatedLinearConstraints] #relevant_constraints=189 
  3.31e-05s  0.00e+00d  [operations_research::sat::CpModelPresolver::DetectDifferentVariables] 
  3.20e-06s  0.00e+00d  [operations_research::sat::CpModelPresolver::ProcessSetPPC] 
  4.40e-06s  0.00e+00d  [operations_research::sat::CpModelPresolver::FindAlmostIdenticalLinearConstraints] 
  1.14e-05s  0.00e+00d  [operations_research::sat::CpModelPresolver::FindBigAtMostOneAndLinearOverlap] 
  2.55e-05s  6.69e-06d  [operations_research::sat::CpModelPresolver::FindBigVerticalLinearOverlap] 
  3.10e-06s  0.00e+00d  [operations_research::sat::CpModelPresolver::FindBigHorizontalLinearOverlap] 
  5.50e-06s  0.00e+00d  [operations_research::sat::CpModelPresolver::MergeClauses] 
  5.69e-05s  0.00e+00d  [DetectDominanceRelations] 
  3.53e-04s  0.00e+00d  [operations_research::sat::CpModelPresolver::PresolveToFixPoint] #num_loops=1 #num_dual_strengthening=1 
  1.61e-05s  0.00e+00d  [operations_research::sat::CpModelPresolver::ExpandObjective] 

Presolve summary:
  - 206 affine relations were detected.
  - rule 'TODO dual: only one blocking constraint?' was applied 288 times.
  - rule 'TODO dual: only one unspecified blocking constraint?' was applied 225 times.
  - rule 'affine: new relation' was applied 206 times.
  - rule 'lin_max: converted to equality' was applied 3 times.
  - rule 'lin_max: removed exprs' was applied 3 times.
  - rule 'lin_max: rewrite with precedences' was applied 45 times.
  - rule 'lin_max: target domain reduced' was applied 48 times.
  - rule 'linear: always true' was applied 65 times.
  - rule 'linear: doubleton free' was applied 2 times.
  - rule 'linear: empty' was applied 3 times.
  - rule 'linear: fixed or dup variables' was applied 10 times.
  - rule 'linear: reduced variable domains' was applied 929 times.
  - rule 'linear: remapped using affine relations' was applied 338 times.
  - rule 'linear: variable substitution 0' was applied 1 time.
  - rule 'linear: variable substitution 1' was applied 2 times.
  - rule 'presolve: 7 unused variables removed.' was applied 1 time.
  - rule 'presolve: iteration' was applied 2 times.

Presolved optimization model '': (model_fingerprint: 0x8f43f5b32f995299)
#Variables: 205 (#ints: 45 in objective) (160 primary variables)
  - 145 different domains in [0,12389] with a largest complexity of 1.
#kInterval: 160
#kLinear2: 189
#kNoOverlap: 10 (#intervals: 160)
[Symmetry] Graph for symmetry has 724 nodes and 858 arcs.
[Symmetry] Symmetry computation done. time: 5.64e-05 dtime: 0.00012249

Preloading model.
#Bound   0.01s best:inf   next:[0,764770] initial_domain
#Model   0.01s var:205/205 constraints:359/359

Starting search at 0.01s with 20 workers.
13 full problem subsolvers: [core, default_lp, fixed, lb_tree_search, max_lp, no_lp, objective_lb_search, objective_shaving_no_lp, probing, pseudo_costs, quick_restart, quick_restart_no_lp, reduced_costs]
7 first solution subsolvers: [fj(2), fj_lin, fs_random, fs_random_no_lp, fs_random_quick_restart, fs_random_quick_restart_no_lp]
17 interleaved subsolvers: [feasibility_pump, graph_arc_lns, graph_cst_lns, graph_dec_lns, graph_var_lns, lb_relax_lns, ls(2), ls_lin, rins/rens, rnd_cst_lns, rnd_var_lns, scheduling_intervals_lns, scheduling_precedences_lns, scheduling_resource_windows_lns, scheduling_time_window_lns, variables_shaving]
3 helper subsolvers: [neighborhood_helper, synchronization_agent, update_gap_integral]

#1       0.02s best:0     next:[]         core
#Done    0.02s core

Task timing                                  n [     min,      max]      avg      dev     time         n [     min,      max]      avg      dev    dtime
                             'core':         1 [  6.56ms,   6.56ms]   6.56ms   0.00ns   6.56ms         1 [260.97us, 260.97us] 260.97us   0.00ns 260.97us
                       'default_lp':         1 [  7.17ms,   7.17ms]   7.17ms   0.00ns   7.17ms         0 [  0.00ns,   0.00ns]   0.00ns   0.00ns   0.00ns
                 'feasibility_pump':         1 [  2.92ms,   2.92ms]   2.92ms   0.00ns   2.92ms         0 [  0.00ns,   0.00ns]   0.00ns   0.00ns   0.00ns
                            'fixed':         1 [  6.94ms,   6.94ms]   6.94ms   0.00ns   6.94ms         0 [  0.00ns,   0.00ns]   0.00ns   0.00ns   0.00ns
                               'fj':         0 [  0.00ns,   0.00ns]   0.00ns   0.00ns   0.00ns         0 [  0.00ns,   0.00ns]   0.00ns   0.00ns   0.00ns
                               'fj':         1 [  3.93ms,   3.93ms]   3.93ms   0.00ns   3.93ms         0 [  0.00ns,   0.00ns]   0.00ns   0.00ns   0.00ns
                           'fj_lin':         0 [  0.00ns,   0.00ns]   0.00ns   0.00ns   0.00ns         0 [  0.00ns,   0.00ns]   0.00ns   0.00ns   0.00ns
                        'fs_random':         1 [  5.30ms,   5.30ms]   5.30ms   0.00ns   5.30ms         0 [  0.00ns,   0.00ns]   0.00ns   0.00ns   0.00ns
                  'fs_random_no_lp':         1 [  4.06ms,   4.06ms]   4.06ms   0.00ns   4.06ms         0 [  0.00ns,   0.00ns]   0.00ns   0.00ns   0.00ns
          'fs_random_quick_restart':         1 [  4.89ms,   4.89ms]   4.89ms   0.00ns   4.89ms         0 [  0.00ns,   0.00ns]   0.00ns   0.00ns   0.00ns
    'fs_random_quick_restart_no_lp':         1 [  3.37ms,   3.37ms]   3.37ms   0.00ns   3.37ms         0 [  0.00ns,   0.00ns]   0.00ns   0.00ns   0.00ns
                    'graph_arc_lns':         0 [  0.00ns,   0.00ns]   0.00ns   0.00ns   0.00ns         0 [  0.00ns,   0.00ns]   0.00ns   0.00ns   0.00ns
                    'graph_cst_lns':         0 [  0.00ns,   0.00ns]   0.00ns   0.00ns   0.00ns         0 [  0.00ns,   0.00ns]   0.00ns   0.00ns   0.00ns
                    'graph_dec_lns':         0 [  0.00ns,   0.00ns]   0.00ns   0.00ns   0.00ns         0 [  0.00ns,   0.00ns]   0.00ns   0.00ns   0.00ns
                    'graph_var_lns':         0 [  0.00ns,   0.00ns]   0.00ns   0.00ns   0.00ns         0 [  0.00ns,   0.00ns]   0.00ns   0.00ns   0.00ns
                     'lb_relax_lns':         0 [  0.00ns,   0.00ns]   0.00ns   0.00ns   0.00ns         0 [  0.00ns,   0.00ns]   0.00ns   0.00ns   0.00ns
                   'lb_tree_search':         1 [  7.61ms,   7.61ms]   7.61ms   0.00ns   7.61ms         0 [  0.00ns,   0.00ns]   0.00ns   0.00ns   0.00ns
                               'ls':         0 [  0.00ns,   0.00ns]   0.00ns   0.00ns   0.00ns         0 [  0.00ns,   0.00ns]   0.00ns   0.00ns   0.00ns
                               'ls':         0 [  0.00ns,   0.00ns]   0.00ns   0.00ns   0.00ns         0 [  0.00ns,   0.00ns]   0.00ns   0.00ns   0.00ns
                           'ls_lin':         0 [  0.00ns,   0.00ns]   0.00ns   0.00ns   0.00ns         0 [  0.00ns,   0.00ns]   0.00ns   0.00ns   0.00ns
                           'max_lp':         1 [  7.94ms,   7.94ms]   7.94ms   0.00ns   7.94ms         0 [  0.00ns,   0.00ns]   0.00ns   0.00ns   0.00ns
                            'no_lp':         1 [  6.44ms,   6.44ms]   6.44ms   0.00ns   6.44ms         0 [  0.00ns,   0.00ns]   0.00ns   0.00ns   0.00ns
              'objective_lb_search':         1 [  5.97ms,   5.97ms]   5.97ms   0.00ns   5.97ms         0 [  0.00ns,   0.00ns]   0.00ns   0.00ns   0.00ns
          'objective_shaving_no_lp':         1 [  5.72ms,   5.72ms]   5.72ms   0.00ns   5.72ms         0 [  0.00ns,   0.00ns]   0.00ns   0.00ns   0.00ns
                          'probing':         1 [  8.36ms,   8.36ms]   8.36ms   0.00ns   8.36ms         0 [  0.00ns,   0.00ns]   0.00ns   0.00ns   0.00ns
                     'pseudo_costs':         1 [  7.94ms,   7.94ms]   7.94ms   0.00ns   7.94ms         1 [890.00ns, 890.00ns] 890.00ns   0.00ns 890.00ns
                    'quick_restart':         1 [  7.38ms,   7.38ms]   7.38ms   0.00ns   7.38ms         0 [  0.00ns,   0.00ns]   0.00ns   0.00ns   0.00ns
              'quick_restart_no_lp':         1 [  5.15ms,   5.15ms]   5.15ms   0.00ns   5.15ms         0 [  0.00ns,   0.00ns]   0.00ns   0.00ns   0.00ns
                    'reduced_costs':         1 [  8.36ms,   8.36ms]   8.36ms   0.00ns   8.36ms         0 [  0.00ns,   0.00ns]   0.00ns   0.00ns   0.00ns
                        'rins/rens':         0 [  0.00ns,   0.00ns]   0.00ns   0.00ns   0.00ns         0 [  0.00ns,   0.00ns]   0.00ns   0.00ns   0.00ns
                      'rnd_cst_lns':         0 [  0.00ns,   0.00ns]   0.00ns   0.00ns   0.00ns         0 [  0.00ns,   0.00ns]   0.00ns   0.00ns   0.00ns
                      'rnd_var_lns':         0 [  0.00ns,   0.00ns]   0.00ns   0.00ns   0.00ns         0 [  0.00ns,   0.00ns]   0.00ns   0.00ns   0.00ns
         'scheduling_intervals_lns':         0 [  0.00ns,   0.00ns]   0.00ns   0.00ns   0.00ns         0 [  0.00ns,   0.00ns]   0.00ns   0.00ns   0.00ns
       'scheduling_precedences_lns':         0 [  0.00ns,   0.00ns]   0.00ns   0.00ns   0.00ns         0 [  0.00ns,   0.00ns]   0.00ns   0.00ns   0.00ns
  'scheduling_resource_windows_lns':         0 [  0.00ns,   0.00ns]   0.00ns   0.00ns   0.00ns         0 [  0.00ns,   0.00ns]   0.00ns   0.00ns   0.00ns
       'scheduling_time_window_lns':         0 [  0.00ns,   0.00ns]   0.00ns   0.00ns   0.00ns         0 [  0.00ns,   0.00ns]   0.00ns   0.00ns   0.00ns
                'variables_shaving':         1 [  4.50ms,   4.50ms]   4.50ms   0.00ns   4.50ms         0 [  0.00ns,   0.00ns]   0.00ns   0.00ns   0.00ns

Search stats                        Bools  Conflicts  Branches  Restarts  BoolPropag  IntegerPropag
                           'core':    189          0       217         2          17          1'482
                     'default_lp':     18          0        18         0           0            800
                          'fixed':      0          0         0         0           0              0
                      'fs_random':      0          0         0         0           0              0
                'fs_random_no_lp':      0          0         0         0           0              0
        'fs_random_quick_restart':      0          0         0         0           0              0
  'fs_random_quick_restart_no_lp':      0          0         0         0           0              0
                 'lb_tree_search':  1'200          0         0         0           0              0
                         'max_lp':      0          0         0         0           0              0
                          'no_lp':     79          0        79         0           0          2'066
            'objective_lb_search':      0          0         0         0           0              0
                        'probing':  1'200          0         0         0           0              0
                   'pseudo_costs':      0          0         0         0           0              0
                  'quick_restart':      0          0         0         0           0              0
            'quick_restart_no_lp':      3          0         3         0           0            189
                  'reduced_costs':  1'200          0         0         0           0              0

SAT stats                           ClassicMinim  LitRemoved  LitLearned  LitForgotten  Subsumed  MClauses  MDecisions  MLitTrue  MSubsumed  MLitRemoved  MReused
                           'core':             0           0           0             0         0         0           0         0          0            0        0
                     'default_lp':             0           0           0             0         0         0           0         0          0            0        0
                          'fixed':             0           0           0             0         0         0           0         0          0            0        0
                      'fs_random':             0           0           0             0         0         0           0         0          0            0        0
                'fs_random_no_lp':             0           0           0             0         0         0           0         0          0            0        0
        'fs_random_quick_restart':             0           0           0             0         0         0           0         0          0            0        0
  'fs_random_quick_restart_no_lp':             0           0           0             0         0         0           0         0          0            0        0
                 'lb_tree_search':             0           0           0             0         0         0           0         0          0            0        0
                         'max_lp':             0           0           0             0         0         0           0         0          0            0        0
                          'no_lp':             0           0           0             0         0         0           0         0          0            0        0
            'objective_lb_search':             0           0           0             0         0         0           0         0          0            0        0
                        'probing':             0           0           0             0         0         0           0         0          0            0        0
                   'pseudo_costs':             0           0           0             0         0         0           0         0          0            0        0
                  'quick_restart':             0           0           0             0         0         0           0         0          0            0        0
            'quick_restart_no_lp':             0           0           0             0         0         0           0         0          0            0        0
                  'reduced_costs':             0           0           0             0         0         0           0         0          0            0        0

Lp stats                  Component  Iterations  AddedCuts  OPTIMAL  DUAL_F.  DUAL_U.
           'default_lp':         16         120          0      231        0        0
                'fixed':         16          48          0       75        0        0
            'fs_random':         16           0          0        0        0        0
               'max_lp':          1         133         20        1        0        0
  'objective_lb_search':         16           0          0        0        0        0
         'pseudo_costs':          1          29        129        3        0        0
        'quick_restart':         16           0          0        0        0        0

Lp dimension              Final dimension of first component
           'default_lp':       1 rows, 12 columns, 2 entries
                'fixed':       1 rows, 12 columns, 2 entries
            'fs_random':       0 rows, 12 columns, 0 entries
               'max_lp':  203 rows, 205 columns, 435 entries
  'objective_lb_search':       0 rows, 12 columns, 0 entries
         'pseudo_costs':   36 rows, 205 columns, 108 entries
        'quick_restart':       0 rows, 12 columns, 0 entries

Lp debug                  CutPropag  CutEqPropag  Adjust  Overflow  Bad  BadScaling
           'default_lp':          0            0       0         0    0           0
                'fixed':          0            0       0         0    0           0
            'fs_random':          0            0       0         0    0           0
               'max_lp':          0            0       0         0    0           0
  'objective_lb_search':          0            0       0         0    0           0
         'pseudo_costs':          0            0       0         0    0           0
        'quick_restart':          0            0       0         0    0           0

Lp pool                   Constraints  Updates  Simplif  Merged  Shortened  Split  Strenghtened  Cuts/Call
           'default_lp':          189        0        0       0          0      0             0        0/0
                'fixed':          189        0        0       0          0      0             0        0/0
            'fs_random':          189        0        0       0          0      0             0        0/0
               'max_lp':          209        0        0       0          0      0             0      20/26
  'objective_lb_search':          189        0        0       0          0      0             0        0/0
         'pseudo_costs':          318        0        0       0          0      0             0    129/150
        'quick_restart':          189        0        0       0          0      0             0        0/0

Lp Cut                                                max_lp  pseudo_costs
                  NoOverlapCompletionTimeExhaustive:       1             1
           NoOverlapCompletionTimeExhaustive_lifted:       -             4
  NoOverlapCompletionTimeExhaustive_lifted_weighted:       4            20
         NoOverlapCompletionTimeExhaustive_weighted:       1             4
                    NoOverlapCompletionTimeQueyrane:       2            18
             NoOverlapCompletionTimeQueyrane_lifted:       4            32
                        NoOverlapDisjunctionOnStart:       8            50

LNS stats                             Improv/Calls  Closed  Difficulty  TimeLimit
                    'graph_arc_lns':           0/0      0%    5.00e-01       0.10
                    'graph_cst_lns':           0/0      0%    5.00e-01       0.10
                    'graph_dec_lns':           0/0      0%    5.00e-01       0.10
                    'graph_var_lns':           0/0      0%    5.00e-01       0.10
                     'lb_relax_lns':           0/0      0%    5.00e-01       0.50
                        'rins/rens':           0/0      0%    5.00e-01       0.10
                      'rnd_cst_lns':           0/0      0%    5.00e-01       0.10
                      'rnd_var_lns':           0/0      0%    5.00e-01       0.10
         'scheduling_intervals_lns':           0/0      0%    5.00e-01       0.10
       'scheduling_precedences_lns':           0/0      0%    5.00e-01       0.10
  'scheduling_resource_windows_lns':           0/0      0%    5.00e-01       0.10
       'scheduling_time_window_lns':           0/0      0%    5.00e-01       0.10

Solutions (1)    Num   Rank
        'core':    1  [1,1]

Objective bounds     Num
  'initial_domain':    1

Solution repositories    Added  Queried  Synchro
  'feasible solutions':      1        0        1
   'fj solution hints':      0        0        0
        'lp solutions':      0        0        0
                'pump':      0        0

CpSolverResponse summary:
status: OPTIMAL
objective: 0
best_bound: 0
integers: 222
booleans: 18
conflicts: 0
branches: 18
propagations: 0
integer_propagations: 800
restarts: 0
lp_iterations: 120
walltime: 0.0296033
usertime: 0.0296034
deterministic_time: 0.000281704
gap_integral: 0.00353539
solution_fingerprint: 0x7660a620ab9c9aa

